c nIsolatedPIs 0
c maxPI 8
p cnf 34 79
c gate 9 -1 6 0
-1 -9 0
6 -9 0
1 -6 9 0
c gate 10 1 -6 0
1 -10 0
-6 -10 0
-1 6 10 0
c gate 11 -9 -10 0
-9 -11 0
-10 -11 0
9 10 11 0
c gate 12 -2 3 0
-2 -12 0
3 -12 0
2 -3 12 0
c gate 13 4 5 0
4 -13 0
5 -13 0
-4 -5 13 0
c gate 14 7 8 0
7 -14 0
8 -14 0
-7 -8 14 0
c gate 15 13 14 0
13 -15 0
14 -15 0
-13 -14 15 0
c gate 16 12 15 0
12 -16 0
15 -16 0
-12 -15 16 0
c gate 17 -11 16 0
-11 -17 0
16 -17 0
11 -16 17 0
c gate 18 3 -5 0
3 -18 0
-5 -18 0
-3 5 18 0
c gate 19 -3 5 0
-3 -19 0
5 -19 0
3 -5 19 0
c gate 20 -18 -19 0
-18 -20 0
-19 -20 0
18 19 20 0
c gate 21 1 7 0
1 -21 0
7 -21 0
-1 -7 21 0
c gate 22 -20 21 0
-20 -22 0
21 -22 0
20 -21 22 0
c gate 23 -1 3 0
-1 -23 0
3 -23 0
1 -3 23 0
c gate 24 5 -7 0
5 -24 0
-7 -24 0
-5 7 24 0
c gate 25 23 24 0
23 -25 0
24 -25 0
-23 -24 25 0
c gate 26 -22 -25 0
-22 -26 0
-25 -26 0
22 25 26 0
c gate 27 -6 -26 0
-6 -27 0
-26 -27 0
6 26 27 0
c gate 28 7 9 0
7 -28 0
9 -28 0
-7 -9 28 0
c gate 29 19 28 0
19 -29 0
28 -29 0
-19 -28 29 0
c gate 30 -27 -29 0
-27 -30 0
-29 -30 0
27 29 30 0
c gate 31 2 4 0
2 -31 0
4 -31 0
-2 -4 31 0
c gate 32 -8 31 0
-8 -32 0
31 -32 0
8 -31 32 0
c gate 33 -30 32 0
-30 -33 0
32 -33 0
30 -32 33 0
c gate 34 -17 -33 0
-17 -34 0
-33 -34 0
17 33 34 0
c PO
-34 0
